p cnf 556 1155
112 113 114 115 116  0
122 123 124 125 126  0
132 133 134 135 136  0
142 143 144 145 146  0
152 153 154 155 156  0
212 213 214 215 216  0
222 223 224 225 226  0
232 233 234 235 236  0
242 243 244 245 246  0
252 253 254 255 256  0
312 313 314 315 316  0
322 323 324 325 326  0
332 333 334 335 336  0
342 343 344 345 346  0
352 353 354 355 356  0
412 413 414 415 416  0
422 423 424 425 426  0
432 433 434 435 436  0
442 443 444 445 446  0
452 453 454 455 456  0
512 513 514 515 516  0
522 523 524 525 526  0
532 533 534 535 536  0
542 543 544 545 546  0
552 553 554 555 556  0
-112 -122 0
-112 -132 0
-112 -142 0
-112 -152 0
-122 -132 0
-122 -142 0
-122 -152 0
-132 -142 0
-132 -152 0
-142 -152 0
-113 -123 0
-113 -133 0
-113 -143 0
-113 -153 0
-123 -133 0
-123 -143 0
-123 -153 0
-133 -143 0
-133 -153 0
-143 -153 0
-114 -124 0
-114 -134 0
-114 -144 0
-114 -154 0
-124 -134 0
-124 -144 0
-124 -154 0
-134 -144 0
-134 -154 0
-144 -154 0
-115 -125 0
-115 -135 0
-115 -145 0
-115 -155 0
-125 -135 0
-125 -145 0
-125 -155 0
-135 -145 0
-135 -155 0
-145 -155 0
-116 -126 0
-116 -136 0
-116 -146 0
-116 -156 0
-126 -136 0
-126 -146 0
-126 -156 0
-136 -146 0
-136 -156 0
-146 -156 0
-212 -222 0
-212 -232 0
-212 -242 0
-212 -252 0
-222 -232 0
-222 -242 0
-222 -252 0
-232 -242 0
-232 -252 0
-242 -252 0
-213 -223 0
-213 -233 0
-213 -243 0
-213 -253 0
-223 -233 0
-223 -243 0
-223 -253 0
-233 -243 0
-233 -253 0
-243 -253 0
-214 -224 0
-214 -234 0
-214 -244 0
-214 -254 0
-224 -234 0
-224 -244 0
-224 -254 0
-234 -244 0
-234 -254 0
-244 -254 0
-215 -225 0
-215 -235 0
-215 -245 0
-215 -255 0
-225 -235 0
-225 -245 0
-225 -255 0
-235 -245 0
-235 -255 0
-245 -255 0
-216 -226 0
-216 -236 0
-216 -246 0
-216 -256 0
-226 -236 0
-226 -246 0
-226 -256 0
-236 -246 0
-236 -256 0
-246 -256 0
-312 -322 0
-312 -332 0
-312 -342 0
-312 -352 0
-322 -332 0
-322 -342 0
-322 -352 0
-332 -342 0
-332 -352 0
-342 -352 0
-313 -323 0
-313 -333 0
-313 -343 0
-313 -353 0
-323 -333 0
-323 -343 0
-323 -353 0
-333 -343 0
-333 -353 0
-343 -353 0
-314 -324 0
-314 -334 0
-314 -344 0
-314 -354 0
-324 -334 0
-324 -344 0
-324 -354 0
-334 -344 0
-334 -354 0
-344 -354 0
-315 -325 0
-315 -335 0
-315 -345 0
-315 -355 0
-325 -335 0
-325 -345 0
-325 -355 0
-335 -345 0
-335 -355 0
-345 -355 0
-316 -326 0
-316 -336 0
-316 -346 0
-316 -356 0
-326 -336 0
-326 -346 0
-326 -356 0
-336 -346 0
-336 -356 0
-346 -356 0
-412 -422 0
-412 -432 0
-412 -442 0
-412 -452 0
-422 -432 0
-422 -442 0
-422 -452 0
-432 -442 0
-432 -452 0
-442 -452 0
-413 -423 0
-413 -433 0
-413 -443 0
-413 -453 0
-423 -433 0
-423 -443 0
-423 -453 0
-433 -443 0
-433 -453 0
-443 -453 0
-414 -424 0
-414 -434 0
-414 -444 0
-414 -454 0
-424 -434 0
-424 -444 0
-424 -454 0
-434 -444 0
-434 -454 0
-444 -454 0
-415 -425 0
-415 -435 0
-415 -445 0
-415 -455 0
-425 -435 0
-425 -445 0
-425 -455 0
-435 -445 0
-435 -455 0
-445 -455 0
-416 -426 0
-416 -436 0
-416 -446 0
-416 -456 0
-426 -436 0
-426 -446 0
-426 -456 0
-436 -446 0
-436 -456 0
-446 -456 0
-512 -522 0
-512 -532 0
-512 -542 0
-512 -552 0
-522 -532 0
-522 -542 0
-522 -552 0
-532 -542 0
-532 -552 0
-542 -552 0
-513 -523 0
-513 -533 0
-513 -543 0
-513 -553 0
-523 -533 0
-523 -543 0
-523 -553 0
-533 -543 0
-533 -553 0
-543 -553 0
-514 -524 0
-514 -534 0
-514 -544 0
-514 -554 0
-524 -534 0
-524 -544 0
-524 -554 0
-534 -544 0
-534 -554 0
-544 -554 0
-515 -525 0
-515 -535 0
-515 -545 0
-515 -555 0
-525 -535 0
-525 -545 0
-525 -555 0
-535 -545 0
-535 -555 0
-545 -555 0
-516 -526 0
-516 -536 0
-516 -546 0
-516 -556 0
-526 -536 0
-526 -546 0
-526 -556 0
-536 -546 0
-536 -556 0
-546 -556 0
-112 -212 0
-112 -312 0
-112 -412 0
-112 -512 0
-212 -312 0
-212 -412 0
-212 -512 0
-312 -412 0
-312 -512 0
-412 -512 0
-113 -213 0
-113 -313 0
-113 -413 0
-113 -513 0
-213 -313 0
-213 -413 0
-213 -513 0
-313 -413 0
-313 -513 0
-413 -513 0
-114 -214 0
-114 -314 0
-114 -414 0
-114 -514 0
-214 -314 0
-214 -414 0
-214 -514 0
-314 -414 0
-314 -514 0
-414 -514 0
-115 -215 0
-115 -315 0
-115 -415 0
-115 -515 0
-215 -315 0
-215 -415 0
-215 -515 0
-315 -415 0
-315 -515 0
-415 -515 0
-116 -216 0
-116 -316 0
-116 -416 0
-116 -516 0
-216 -316 0
-216 -416 0
-216 -516 0
-316 -416 0
-316 -516 0
-416 -516 0
-122 -222 0
-122 -322 0
-122 -422 0
-122 -522 0
-222 -322 0
-222 -422 0
-222 -522 0
-322 -422 0
-322 -522 0
-422 -522 0
-123 -223 0
-123 -323 0
-123 -423 0
-123 -523 0
-223 -323 0
-223 -423 0
-223 -523 0
-323 -423 0
-323 -523 0
-423 -523 0
-124 -224 0
-124 -324 0
-124 -424 0
-124 -524 0
-224 -324 0
-224 -424 0
-224 -524 0
-324 -424 0
-324 -524 0
-424 -524 0
-125 -225 0
-125 -325 0
-125 -425 0
-125 -525 0
-225 -325 0
-225 -425 0
-225 -525 0
-325 -425 0
-325 -525 0
-425 -525 0
-126 -226 0
-126 -326 0
-126 -426 0
-126 -526 0
-226 -326 0
-226 -426 0
-226 -526 0
-326 -426 0
-326 -526 0
-426 -526 0
-132 -232 0
-132 -332 0
-132 -432 0
-132 -532 0
-232 -332 0
-232 -432 0
-232 -532 0
-332 -432 0
-332 -532 0
-432 -532 0
-133 -233 0
-133 -333 0
-133 -433 0
-133 -533 0
-233 -333 0
-233 -433 0
-233 -533 0
-333 -433 0
-333 -533 0
-433 -533 0
-134 -234 0
-134 -334 0
-134 -434 0
-134 -534 0
-234 -334 0
-234 -434 0
-234 -534 0
-334 -434 0
-334 -534 0
-434 -534 0
-135 -235 0
-135 -335 0
-135 -435 0
-135 -535 0
-235 -335 0
-235 -435 0
-235 -535 0
-335 -435 0
-335 -535 0
-435 -535 0
-136 -236 0
-136 -336 0
-136 -436 0
-136 -536 0
-236 -336 0
-236 -436 0
-236 -536 0
-336 -436 0
-336 -536 0
-436 -536 0
-142 -242 0
-142 -342 0
-142 -442 0
-142 -542 0
-242 -342 0
-242 -442 0
-242 -542 0
-342 -442 0
-342 -542 0
-442 -542 0
-143 -243 0
-143 -343 0
-143 -443 0
-143 -543 0
-243 -343 0
-243 -443 0
-243 -543 0
-343 -443 0
-343 -543 0
-443 -543 0
-144 -244 0
-144 -344 0
-144 -444 0
-144 -544 0
-244 -344 0
-244 -444 0
-244 -544 0
-344 -444 0
-344 -544 0
-444 -544 0
-145 -245 0
-145 -345 0
-145 -445 0
-145 -545 0
-245 -345 0
-245 -445 0
-245 -545 0
-345 -445 0
-345 -545 0
-445 -545 0
-146 -246 0
-146 -346 0
-146 -446 0
-146 -546 0
-246 -346 0
-246 -446 0
-246 -546 0
-346 -446 0
-346 -546 0
-446 -546 0
-152 -252 0
-152 -352 0
-152 -452 0
-152 -552 0
-252 -352 0
-252 -452 0
-252 -552 0
-352 -452 0
-352 -552 0
-452 -552 0
-153 -253 0
-153 -353 0
-153 -453 0
-153 -553 0
-253 -353 0
-253 -453 0
-253 -553 0
-353 -453 0
-353 -553 0
-453 -553 0
-154 -254 0
-154 -354 0
-154 -454 0
-154 -554 0
-254 -354 0
-254 -454 0
-254 -554 0
-354 -454 0
-354 -554 0
-454 -554 0
-155 -255 0
-155 -355 0
-155 -455 0
-155 -555 0
-255 -355 0
-255 -455 0
-255 -555 0
-355 -455 0
-355 -555 0
-455 -555 0
-156 -256 0
-156 -356 0
-156 -456 0
-156 -556 0
-256 -356 0
-256 -456 0
-256 -556 0
-356 -456 0
-356 -556 0
-456 -556 0
112 0
223 0
334 0
445 0
556 0
-112 -112 112 0
-112 -113 122 0
-112 -114 132 0
-112 -115 142 0
-112 -116 152 0
-113 -112 212 0
-113 -113 222 0
-113 -114 232 0
-113 -115 242 0
-113 -116 252 0
-114 -112 312 0
-114 -113 322 0
-114 -114 332 0
-114 -115 342 0
-114 -116 352 0
-115 -112 412 0
-115 -113 422 0
-115 -114 432 0
-115 -115 442 0
-115 -116 452 0
-116 -112 512 0
-116 -113 522 0
-116 -114 532 0
-116 -115 542 0
-116 -116 552 0
-122 -212 112 0
-122 -213 122 0
-122 -214 132 0
-122 -215 142 0
-122 -216 152 0
-123 -212 212 0
-123 -213 222 0
-123 -214 232 0
-123 -215 242 0
-123 -216 252 0
-124 -212 312 0
-124 -213 322 0
-124 -214 332 0
-124 -215 342 0
-124 -216 352 0
-125 -212 412 0
-125 -213 422 0
-125 -214 432 0
-125 -215 442 0
-125 -216 452 0
-126 -212 512 0
-126 -213 522 0
-126 -214 532 0
-126 -215 542 0
-126 -216 552 0
-132 -312 112 0
-132 -313 122 0
-132 -314 132 0
-132 -315 142 0
-132 -316 152 0
-133 -312 212 0
-133 -313 222 0
-133 -314 232 0
-133 -315 242 0
-133 -316 252 0
-134 -312 312 0
-134 -313 322 0
-134 -314 332 0
-134 -315 342 0
-134 -316 352 0
-135 -312 412 0
-135 -313 422 0
-135 -314 432 0
-135 -315 442 0
-135 -316 452 0
-136 -312 512 0
-136 -313 522 0
-136 -314 532 0
-136 -315 542 0
-136 -316 552 0
-142 -412 112 0
-142 -413 122 0
-142 -414 132 0
-142 -415 142 0
-142 -416 152 0
-143 -412 212 0
-143 -413 222 0
-143 -414 232 0
-143 -415 242 0
-143 -416 252 0
-144 -412 312 0
-144 -413 322 0
-144 -414 332 0
-144 -415 342 0
-144 -416 352 0
-145 -412 412 0
-145 -413 422 0
-145 -414 432 0
-145 -415 442 0
-145 -416 452 0
-146 -412 512 0
-146 -413 522 0
-146 -414 532 0
-146 -415 542 0
-146 -416 552 0
-152 -512 112 0
-152 -513 122 0
-152 -514 132 0
-152 -515 142 0
-152 -516 152 0
-153 -512 212 0
-153 -513 222 0
-153 -514 232 0
-153 -515 242 0
-153 -516 252 0
-154 -512 312 0
-154 -513 322 0
-154 -514 332 0
-154 -515 342 0
-154 -516 352 0
-155 -512 412 0
-155 -513 422 0
-155 -514 432 0
-155 -515 442 0
-155 -516 452 0
-156 -512 512 0
-156 -513 522 0
-156 -514 532 0
-156 -515 542 0
-156 -516 552 0
-212 -122 113 0
-212 -123 123 0
-212 -124 133 0
-212 -125 143 0
-212 -126 153 0
-213 -122 213 0
-213 -123 223 0
-213 -124 233 0
-213 -125 243 0
-213 -126 253 0
-214 -122 313 0
-214 -123 323 0
-214 -124 333 0
-214 -125 343 0
-214 -126 353 0
-215 -122 413 0
-215 -123 423 0
-215 -124 433 0
-215 -125 443 0
-215 -126 453 0
-216 -122 513 0
-216 -123 523 0
-216 -124 533 0
-216 -125 543 0
-216 -126 553 0
-222 -222 113 0
-222 -223 123 0
-222 -224 133 0
-222 -225 143 0
-222 -226 153 0
-223 -222 213 0
-223 -223 223 0
-223 -224 233 0
-223 -225 243 0
-223 -226 253 0
-224 -222 313 0
-224 -223 323 0
-224 -224 333 0
-224 -225 343 0
-224 -226 353 0
-225 -222 413 0
-225 -223 423 0
-225 -224 433 0
-225 -225 443 0
-225 -226 453 0
-226 -222 513 0
-226 -223 523 0
-226 -224 533 0
-226 -225 543 0
-226 -226 553 0
-232 -322 113 0
-232 -323 123 0
-232 -324 133 0
-232 -325 143 0
-232 -326 153 0
-233 -322 213 0
-233 -323 223 0
-233 -324 233 0
-233 -325 243 0
-233 -326 253 0
-234 -322 313 0
-234 -323 323 0
-234 -324 333 0
-234 -325 343 0
-234 -326 353 0
-235 -322 413 0
-235 -323 423 0
-235 -324 433 0
-235 -325 443 0
-235 -326 453 0
-236 -322 513 0
-236 -323 523 0
-236 -324 533 0
-236 -325 543 0
-236 -326 553 0
-242 -422 113 0
-242 -423 123 0
-242 -424 133 0
-242 -425 143 0
-242 -426 153 0
-243 -422 213 0
-243 -423 223 0
-243 -424 233 0
-243 -425 243 0
-243 -426 253 0
-244 -422 313 0
-244 -423 323 0
-244 -424 333 0
-244 -425 343 0
-244 -426 353 0
-245 -422 413 0
-245 -423 423 0
-245 -424 433 0
-245 -425 443 0
-245 -426 453 0
-246 -422 513 0
-246 -423 523 0
-246 -424 533 0
-246 -425 543 0
-246 -426 553 0
-252 -522 113 0
-252 -523 123 0
-252 -524 133 0
-252 -525 143 0
-252 -526 153 0
-253 -522 213 0
-253 -523 223 0
-253 -524 233 0
-253 -525 243 0
-253 -526 253 0
-254 -522 313 0
-254 -523 323 0
-254 -524 333 0
-254 -525 343 0
-254 -526 353 0
-255 -522 413 0
-255 -523 423 0
-255 -524 433 0
-255 -525 443 0
-255 -526 453 0
-256 -522 513 0
-256 -523 523 0
-256 -524 533 0
-256 -525 543 0
-256 -526 553 0
-312 -132 114 0
-312 -133 124 0
-312 -134 134 0
-312 -135 144 0
-312 -136 154 0
-313 -132 214 0
-313 -133 224 0
-313 -134 234 0
-313 -135 244 0
-313 -136 254 0
-314 -132 314 0
-314 -133 324 0
-314 -134 334 0
-314 -135 344 0
-314 -136 354 0
-315 -132 414 0
-315 -133 424 0
-315 -134 434 0
-315 -135 444 0
-315 -136 454 0
-316 -132 514 0
-316 -133 524 0
-316 -134 534 0
-316 -135 544 0
-316 -136 554 0
-322 -232 114 0
-322 -233 124 0
-322 -234 134 0
-322 -235 144 0
-322 -236 154 0
-323 -232 214 0
-323 -233 224 0
-323 -234 234 0
-323 -235 244 0
-323 -236 254 0
-324 -232 314 0
-324 -233 324 0
-324 -234 334 0
-324 -235 344 0
-324 -236 354 0
-325 -232 414 0
-325 -233 424 0
-325 -234 434 0
-325 -235 444 0
-325 -236 454 0
-326 -232 514 0
-326 -233 524 0
-326 -234 534 0
-326 -235 544 0
-326 -236 554 0
-332 -332 114 0
-332 -333 124 0
-332 -334 134 0
-332 -335 144 0
-332 -336 154 0
-333 -332 214 0
-333 -333 224 0
-333 -334 234 0
-333 -335 244 0
-333 -336 254 0
-334 -332 314 0
-334 -333 324 0
-334 -334 334 0
-334 -335 344 0
-334 -336 354 0
-335 -332 414 0
-335 -333 424 0
-335 -334 434 0
-335 -335 444 0
-335 -336 454 0
-336 -332 514 0
-336 -333 524 0
-336 -334 534 0
-336 -335 544 0
-336 -336 554 0
-342 -432 114 0
-342 -433 124 0
-342 -434 134 0
-342 -435 144 0
-342 -436 154 0
-343 -432 214 0
-343 -433 224 0
-343 -434 234 0
-343 -435 244 0
-343 -436 254 0
-344 -432 314 0
-344 -433 324 0
-344 -434 334 0
-344 -435 344 0
-344 -436 354 0
-345 -432 414 0
-345 -433 424 0
-345 -434 434 0
-345 -435 444 0
-345 -436 454 0
-346 -432 514 0
-346 -433 524 0
-346 -434 534 0
-346 -435 544 0
-346 -436 554 0
-352 -532 114 0
-352 -533 124 0
-352 -534 134 0
-352 -535 144 0
-352 -536 154 0
-353 -532 214 0
-353 -533 224 0
-353 -534 234 0
-353 -535 244 0
-353 -536 254 0
-354 -532 314 0
-354 -533 324 0
-354 -534 334 0
-354 -535 344 0
-354 -536 354 0
-355 -532 414 0
-355 -533 424 0
-355 -534 434 0
-355 -535 444 0
-355 -536 454 0
-356 -532 514 0
-356 -533 524 0
-356 -534 534 0
-356 -535 544 0
-356 -536 554 0
-412 -142 115 0
-412 -143 125 0
-412 -144 135 0
-412 -145 145 0
-412 -146 155 0
-413 -142 215 0
-413 -143 225 0
-413 -144 235 0
-413 -145 245 0
-413 -146 255 0
-414 -142 315 0
-414 -143 325 0
-414 -144 335 0
-414 -145 345 0
-414 -146 355 0
-415 -142 415 0
-415 -143 425 0
-415 -144 435 0
-415 -145 445 0
-415 -146 455 0
-416 -142 515 0
-416 -143 525 0
-416 -144 535 0
-416 -145 545 0
-416 -146 555 0
-422 -242 115 0
-422 -243 125 0
-422 -244 135 0
-422 -245 145 0
-422 -246 155 0
-423 -242 215 0
-423 -243 225 0
-423 -244 235 0
-423 -245 245 0
-423 -246 255 0
-424 -242 315 0
-424 -243 325 0
-424 -244 335 0
-424 -245 345 0
-424 -246 355 0
-425 -242 415 0
-425 -243 425 0
-425 -244 435 0
-425 -245 445 0
-425 -246 455 0
-426 -242 515 0
-426 -243 525 0
-426 -244 535 0
-426 -245 545 0
-426 -246 555 0
-432 -342 115 0
-432 -343 125 0
-432 -344 135 0
-432 -345 145 0
-432 -346 155 0
-433 -342 215 0
-433 -343 225 0
-433 -344 235 0
-433 -345 245 0
-433 -346 255 0
-434 -342 315 0
-434 -343 325 0
-434 -344 335 0
-434 -345 345 0
-434 -346 355 0
-435 -342 415 0
-435 -343 425 0
-435 -344 435 0
-435 -345 445 0
-435 -346 455 0
-436 -342 515 0
-436 -343 525 0
-436 -344 535 0
-436 -345 545 0
-436 -346 555 0
-442 -442 115 0
-442 -443 125 0
-442 -444 135 0
-442 -445 145 0
-442 -446 155 0
-443 -442 215 0
-443 -443 225 0
-443 -444 235 0
-443 -445 245 0
-443 -446 255 0
-444 -442 315 0
-444 -443 325 0
-444 -444 335 0
-444 -445 345 0
-444 -446 355 0
-445 -442 415 0
-445 -443 425 0
-445 -444 435 0
-445 -445 445 0
-445 -446 455 0
-446 -442 515 0
-446 -443 525 0
-446 -444 535 0
-446 -445 545 0
-446 -446 555 0
-452 -542 115 0
-452 -543 125 0
-452 -544 135 0
-452 -545 145 0
-452 -546 155 0
-453 -542 215 0
-453 -543 225 0
-453 -544 235 0
-453 -545 245 0
-453 -546 255 0
-454 -542 315 0
-454 -543 325 0
-454 -544 335 0
-454 -545 345 0
-454 -546 355 0
-455 -542 415 0
-455 -543 425 0
-455 -544 435 0
-455 -545 445 0
-455 -546 455 0
-456 -542 515 0
-456 -543 525 0
-456 -544 535 0
-456 -545 545 0
-456 -546 555 0
-512 -152 116 0
-512 -153 126 0
-512 -154 136 0
-512 -155 146 0
-512 -156 156 0
-513 -152 216 0
-513 -153 226 0
-513 -154 236 0
-513 -155 246 0
-513 -156 256 0
-514 -152 316 0
-514 -153 326 0
-514 -154 336 0
-514 -155 346 0
-514 -156 356 0
-515 -152 416 0
-515 -153 426 0
-515 -154 436 0
-515 -155 446 0
-515 -156 456 0
-516 -152 516 0
-516 -153 526 0
-516 -154 536 0
-516 -155 546 0
-516 -156 556 0
-522 -252 116 0
-522 -253 126 0
-522 -254 136 0
-522 -255 146 0
-522 -256 156 0
-523 -252 216 0
-523 -253 226 0
-523 -254 236 0
-523 -255 246 0
-523 -256 256 0
-524 -252 316 0
-524 -253 326 0
-524 -254 336 0
-524 -255 346 0
-524 -256 356 0
-525 -252 416 0
-525 -253 426 0
-525 -254 436 0
-525 -255 446 0
-525 -256 456 0
-526 -252 516 0
-526 -253 526 0
-526 -254 536 0
-526 -255 546 0
-526 -256 556 0
-532 -352 116 0
-532 -353 126 0
-532 -354 136 0
-532 -355 146 0
-532 -356 156 0
-533 -352 216 0
-533 -353 226 0
-533 -354 236 0
-533 -355 246 0
-533 -356 256 0
-534 -352 316 0
-534 -353 326 0
-534 -354 336 0
-534 -355 346 0
-534 -356 356 0
-535 -352 416 0
-535 -353 426 0
-535 -354 436 0
-535 -355 446 0
-535 -356 456 0
-536 -352 516 0
-536 -353 526 0
-536 -354 536 0
-536 -355 546 0
-536 -356 556 0
-542 -452 116 0
-542 -453 126 0
-542 -454 136 0
-542 -455 146 0
-542 -456 156 0
-543 -452 216 0
-543 -453 226 0
-543 -454 236 0
-543 -455 246 0
-543 -456 256 0
-544 -452 316 0
-544 -453 326 0
-544 -454 336 0
-544 -455 346 0
-544 -456 356 0
-545 -452 416 0
-545 -453 426 0
-545 -454 436 0
-545 -455 446 0
-545 -456 456 0
-546 -452 516 0
-546 -453 526 0
-546 -454 536 0
-546 -455 546 0
-546 -456 556 0
-552 -552 116 0
-552 -553 126 0
-552 -554 136 0
-552 -555 146 0
-552 -556 156 0
-553 -552 216 0
-553 -553 226 0
-553 -554 236 0
-553 -555 246 0
-553 -556 256 0
-554 -552 316 0
-554 -553 326 0
-554 -554 336 0
-554 -555 346 0
-554 -556 356 0
-555 -552 416 0
-555 -553 426 0
-555 -554 436 0
-555 -555 446 0
-555 -556 456 0
-556 -552 516 0
-556 -553 526 0
-556 -554 536 0
-556 -555 546 0
-556 -556 556 0
